instances/in_50_25_7_2.dzn
n = 50;
k = 25;
h = 7;
tiles = array2d(1..n, 1..2,
[ 10,21
, 25,6
, 24,10
, 6,17
, 6,6
, 13,24
, 21,11
, 14,14
, 20,18
, 10,1
, 20,10
, 4,15
, 15,2
, 9,8
, 19,3
, 12,24
, 25,20
, 21,2
, 23,9
, 14,17
, 4,18
, 3,24
, 12,4
, 24,10
, 6,23
, 22,21
, 3,7
, 21,13
, 11,8
, 22,22
, 1,7
, 4,2
, 20,19
, 13,11
, 21,17
, 9,12
, 18,5
, 19,10
, 13,3
, 22,20
, 22,1
, 4,9
, 24,25
, 9,11
, 1,18
, 9,23
, 23,3
, 17,21
, 15,6
, 15,7
]);