instances/in_50_25_7_2.lp
#const n = 50.
#const k = 25.
#const h = 7.
tile(1,10,21).
tile(2,25,6).
tile(3,24,10).
tile(4,6,17).
tile(5,6,6).
tile(6,13,24).
tile(7,21,11).
tile(8,14,14).
tile(9,20,18).
tile(10,10,1).
tile(11,20,10).
tile(12,4,15).
tile(13,15,2).
tile(14,9,8).
tile(15,19,3).
tile(16,12,24).
tile(17,25,20).
tile(18,21,2).
tile(19,23,9).
tile(20,14,17).
tile(21,4,18).
tile(22,3,24).
tile(23,12,4).
tile(24,24,10).
tile(25,6,23).
tile(26,22,21).
tile(27,3,7).
tile(28,21,13).
tile(29,11,8).
tile(30,22,22).
tile(31,1,7).
tile(32,4,2).
tile(33,20,19).
tile(34,13,11).
tile(35,21,17).
tile(36,9,12).
tile(37,18,5).
tile(38,19,10).
tile(39,13,3).
tile(40,22,20).
tile(41,22,1).
tile(42,4,9).
tile(43,24,25).
tile(44,9,11).
tile(45,1,18).
tile(46,9,23).
tile(47,23,3).
tile(48,17,21).
tile(49,15,6).
tile(50,15,7).
